(declare-const |phi_main____CPAchecker_TMP_0:402:420:453| Int)
(declare-const __VERIFIER_assert__cond___7 Int)
(declare-const |__VERIFIER_assert__cond___3':365:388:412:444:477| Int)
(declare-const __VERIFIER_assert__cond___3 Int)
(declare-const |phi___VERIFIER_assert__cond___17:394:428:461| Int)
(declare-const __VERIFIER_assert__cond___18 Int)
(declare-const |__VERIFIER_assert__cond___18':151:171:178:231:435:468| Int)
(declare-const havoc Int)
(declare-const |__VERIFIER_assert__cond___8':368:384:408:440:473| Int)
(declare-const |K:381:382:406:438:471| Int)
(declare-const |phi___VERIFIER_assert__cond___11:399:423:456| Int)
(declare-const |main____CPAchecker_TMP_6':369:386:410:442:475| Int)
(declare-const __VERIFIER_assert__cond___15 Int)
(declare-const |__VERIFIER_assert__cond___7':367:383:407:439:472| Int)
(declare-const |phi___VERIFIER_assert__cond___18:393:429:462| Int)
(declare-const |phi___tmp_383_0:405:417:450| Int)
(declare-const __VERIFIER_assert__cond___8 Int)
(declare-const |main__t':147:385:409:441:474| Int)
(declare-const __VERIFIER_assert__cond___11 Int)
(declare-const |__VERIFIER_assert__cond___4':366:387:411:443:476| Int)
(declare-const |phi_main____CPAchecker_TMP_0___0:397:425:458| Int)
(declare-const |__VERIFIER_assert__cond___17':150:168:175:228:432:465| Int)
(declare-const |phi___VERIFIER_assert__cond___12:398:424:457| Int)
(declare-const |main____CPAchecker_TMP_4':364:389:413:445:478| Int)
(declare-const |main____CPAchecker_TMP_0':148:169:176:229:433:466| Int)
(declare-const __VERIFIER_assert__cond___4 Int)
(declare-const main____CPAchecker_TMP_4 Int)
(declare-const __VERIFIER_assert__cond___0 Int)
(declare-const |__tmp_383_0':146:170:177:230:434:467| Int)
(declare-const __VERIFIER_assert__cond___12 Int)
(declare-const __VERIFIER_assert__cond Int)
(declare-const |phi___VERIFIER_assert__cond___16:395:427:460| Int)
(declare-const main____CPAchecker_TMP_3 Int)
(declare-const main____CPAchecker_TMP_6 Int)
(declare-const |havoc:29:65:392:416:448:481| Int)
(declare-const |havoc:9:63:145:225:233:437:470| Int)
(declare-const |main__t':147:167:174:227:431:464| Int)
(declare-const |havoc:28:64:341:391:415:447:480| Int)
(declare-const |main____CPAchecker_TMP_0___0':149:172:179:232:436:469| Int)
(declare-const __tmp_383_0 Int)
(declare-const |main____CPAchecker_TMP_3':363:390:414:446:479| Int)
(declare-const |K:165:166:173:226:430:463| Int)
(declare-const |phi_main__t:403:419:452| Int)
(declare-const main____CPAchecker_TMP_0___0 Int)
(declare-const |phi___VERIFIER_assert__cond:401:421:454| Int)
(declare-const __VERIFIER_assert__cond___17 Int)
(declare-const |phi___VERIFIER_assert__cond___15:396:426:459| Int)
(declare-const |havoc:3:62:449| Int)
(declare-const __VERIFIER_assert__cond___16 Int)
(declare-const |phi___tmp_259_0:404:418:451| Int)
(declare-const |phi___VERIFIER_assert__cond___0:400:422:455| Int)
(assert (and (<= (+ (- havoc) 1) 0) (not (= (+ (- havoc) 1) 0))
               (or (and (not (= |havoc:3:62:449| 0))
                          (not (= (ite (<= (+ (- havoc) 1) 0) 1 0) 0))
                          (= (+ (- |phi___tmp_383_0:405:417:450|) __tmp_383_0) 0)
                          (= (+ (- |phi___tmp_259_0:404:418:451|)
                                  |havoc:3:62:449|) 0)
                          (= (- |phi_main__t:403:419:452|) 0)
                          (= (+ (- |phi_main____CPAchecker_TMP_0:402:420:453|)
                                  |havoc:3:62:449|) 0)
                          (= (+ (- |phi___VERIFIER_assert__cond:401:421:454|)
                                  1) 0)
                          (= (+ (- |phi___VERIFIER_assert__cond___0:400:422:455|)
                                  (ite (<= (+ (- havoc) 1) 0) 1 0)) 0)
                          (= (+ (- |phi___VERIFIER_assert__cond___11:399:423:456|)
                                  __VERIFIER_assert__cond___11) 0)
                          (= (+ (- |phi___VERIFIER_assert__cond___12:398:424:457|)
                                  __VERIFIER_assert__cond___12) 0)
                          (= (+ (- |phi_main____CPAchecker_TMP_0___0:397:425:458|)
                                  main____CPAchecker_TMP_0___0) 0)
                          (= (+ (- |phi___VERIFIER_assert__cond___15:396:426:459|)
                                  __VERIFIER_assert__cond___15) 0)
                          (= (+ (- |phi___VERIFIER_assert__cond___16:395:427:460|)
                                  __VERIFIER_assert__cond___16) 0)
                          (= (+ (- |phi___VERIFIER_assert__cond___17:394:428:461|)
                                  __VERIFIER_assert__cond___17) 0)
                          (= (+ (- |phi___VERIFIER_assert__cond___18:393:429:462|)
                                  __VERIFIER_assert__cond___18) 0))
                     (and (= |havoc:3:62:449| 0)
                            (not (= (ite (<= (+ (- havoc) 1) 0) 1 0) 0))
                            (or (not (<= (- |K:165:166:173:226:430:463|) 0))
                                  (= (+ |main__t':147:167:174:227:431:464|
                                          (- |K:165:166:173:226:430:463|)) 0))
                            (or (not (and (<= (- |K:165:166:173:226:430:463|) 0)
                                            (<= |K:165:166:173:226:430:463| 0)))
                                  (= (+ |__VERIFIER_assert__cond___17':150:168:175:228:432:465|
                                          (- __VERIFIER_assert__cond___17)) 0))
                            (or (not (<= (+ (- |K:165:166:173:226:430:463|) 1) 0))
                                  (= (+ |__VERIFIER_assert__cond___17':150:168:175:228:432:465|
                                          -1) 0))
                            (or (not (and (<= (- |K:165:166:173:226:430:463|) 0)
                                            (<= |K:165:166:173:226:430:463| 0)))
                                  (= (+ |main____CPAchecker_TMP_0':148:169:176:229:433:466|
                                          (- |havoc:3:62:449|)) 0))
                            (or (not (<= (+ (- |K:165:166:173:226:430:463|) 1) 0))
                                  (= |main____CPAchecker_TMP_0':148:169:176:229:433:466| 0))
                            (or (not (and (<= (- |K:165:166:173:226:430:463|) 0)
                                            (<= |K:165:166:173:226:430:463| 0)))
                                  (= (+ |__tmp_383_0':146:170:177:230:434:467|
                                          (- |havoc:3:62:449|)) 0))
                            (or (not (<= (+ (- |K:165:166:173:226:430:463|) 1) 0))
                                  (= |__tmp_383_0':146:170:177:230:434:467| 0))
                            (or (not (and (<= (- |K:165:166:173:226:430:463|) 0)
                                            (<= |K:165:166:173:226:430:463| 0)))
                                  (= (+ |__VERIFIER_assert__cond___18':151:171:178:231:435:468|
                                          (- __VERIFIER_assert__cond___18)) 0))
                            (or (not (<= (+ (- |K:165:166:173:226:430:463|) 1) 0))
                                  (= (+ |__VERIFIER_assert__cond___18':151:171:178:231:435:468|
                                          -1) 0))
                            (or (not (and (<= (- |K:165:166:173:226:430:463|) 0)
                                            (<= |K:165:166:173:226:430:463| 0)))
                                  (= (+ |main____CPAchecker_TMP_0___0':149:172:179:232:436:469|
                                          (- main____CPAchecker_TMP_0___0)) 0))
                            (or (not (<= (+ (- |K:165:166:173:226:430:463|) 1) 0))
                                  (= |main____CPAchecker_TMP_0___0':149:172:179:232:436:469| 0))
                            (or (and (= |K:165:166:173:226:430:463| 0)
                                       (= (+ (- |__VERIFIER_assert__cond___18':151:171:178:231:435:468|)
                                               __VERIFIER_assert__cond___18) 0)
                                       (= (+ (- |__VERIFIER_assert__cond___17':150:168:175:228:432:465|)
                                               __VERIFIER_assert__cond___17) 0)
                                       (= (+ (- |main____CPAchecker_TMP_0___0':149:172:179:232:436:469|)
                                               main____CPAchecker_TMP_0___0) 0)
                                       (= (+ (- |main____CPAchecker_TMP_0':148:169:176:229:433:466|)
                                               |havoc:3:62:449|) 0)
                                       (= (- |main__t':147:167:174:227:431:464|) 0)
                                       (= (+ (- |__tmp_383_0':146:170:177:230:434:467|)
                                               |havoc:3:62:449|) 0))
                                  (and (<= (+ (- |K:165:166:173:226:430:463|)
                                                1) 0) (= |havoc:3:62:449| 0)
                                         (= |havoc:3:62:449| 0)
                                         (<= (+ (- havoc) 3) 0)
                                         (= (+ |__VERIFIER_assert__cond___18':151:171:178:231:435:468|
                                                 -1) 0)
                                         (= (+ |__VERIFIER_assert__cond___17':150:168:175:228:432:465|
                                                 -1) 0)
                                         (= |main____CPAchecker_TMP_0':148:169:176:229:433:466| 0)
                                         (= |main____CPAchecker_TMP_0___0':149:172:179:232:436:469| 0)
                                         (= |__tmp_383_0':146:170:177:230:434:467| 0)
                                         (<= (+ |main__t':147:167:174:227:431:464|
                                                  (- havoc) 2) 0)
                                         (<= (+ (- |main__t':147:167:174:227:431:464|)
                                                  1) 0)))
                            (<= (- |K:165:166:173:226:430:463|) 0)
                            (= |__tmp_383_0':146:170:177:230:434:467| 0)
                            (= |main____CPAchecker_TMP_0':148:169:176:229:433:466| 0)
                            (<= (- |main__t':147:167:174:227:431:464|) 0)
                            (< (+ (- havoc) 1) 0)
                            (= |__tmp_383_0':146:170:177:230:434:467| 0)
                            (= |main____CPAchecker_TMP_0':148:169:176:229:433:466| 0)
                            (not (= (+ |main__t':147:167:174:227:431:464|
                                         (- havoc) 2) 0))
                            (not (= |havoc:9:63:145:225:233:437:470| 0))
                            (not (= (ite (<= (+ (- |main__t':147:167:174:227:431:464|)
                                                  -1) 0)
                                         1 0) 0))
                            (not (= (ite (<= (+ |main__t':147:167:174:227:431:464|
                                                  (- havoc) 2) 0)
                                         1 0) 0))
                            (= (+ |__tmp_383_0':146:170:177:230:434:467|
                                    (- |phi___tmp_383_0:405:417:450|)) 0)
                            (= (+ |havoc:9:63:145:225:233:437:470|
                                    (- |phi___tmp_259_0:404:418:451|)) 0)
                            (= (+ |main__t':147:167:174:227:431:464|
                                    (- |phi_main__t:403:419:452|) 1) 0)
                            (= (+ |__tmp_383_0':146:170:177:230:434:467|
                                    (- |phi_main____CPAchecker_TMP_0:402:420:453|)) 0)
                            (= (+ __VERIFIER_assert__cond
                                    (- |phi___VERIFIER_assert__cond:401:421:454|)) 0)
                            (= (+ __VERIFIER_assert__cond___0
                                    (- |phi___VERIFIER_assert__cond___0:400:422:455|)) 0)
                            (= (+ (- |phi___VERIFIER_assert__cond___11:399:423:456|)
                                    1) 0)
                            (= (+ (- |phi___VERIFIER_assert__cond___12:398:424:457|)
                                    (ite (<= (+ (- havoc) 1) 0) 1 0)) 0)
                            (= (+ |havoc:9:63:145:225:233:437:470|
                                    (- |phi_main____CPAchecker_TMP_0___0:397:425:458|)) 0)
                            (= (+ (ite (<= (+ (- |main__t':147:167:174:227:431:464|)
                                                -1) 0)
                                       1 0)
                                    (- |phi___VERIFIER_assert__cond___15:396:426:459|)) 0)
                            (= (+ (ite (<= (+ |main__t':147:167:174:227:431:464|
                                                (- havoc) 2) 0)
                                       1 0)
                                    (- |phi___VERIFIER_assert__cond___16:395:427:460|)) 0)
                            (= (+ |__VERIFIER_assert__cond___17':150:168:175:228:432:465|
                                    (- |phi___VERIFIER_assert__cond___17:394:428:461|)) 0)
                            (= (+ |__VERIFIER_assert__cond___18':151:171:178:231:435:468|
                                    (- |phi___VERIFIER_assert__cond___18:393:429:462|)) 0)))
               (or (not (and (<= (- |K:381:382:406:438:471|) 0)
                               (<= |K:381:382:406:438:471| 0)))
                     (= (+ (- __VERIFIER_assert__cond___7)
                             |__VERIFIER_assert__cond___7':367:383:407:439:472|) 0))
               (or (not (<= (+ (- |K:381:382:406:438:471|) 1) 0))
                     (= (+ |__VERIFIER_assert__cond___7':367:383:407:439:472|
                             -1) 0))
               (or (not (and (<= (- |K:381:382:406:438:471|) 0)
                               (<= |K:381:382:406:438:471| 0)))
                     (= (+ (- __VERIFIER_assert__cond___8)
                             |__VERIFIER_assert__cond___8':368:384:408:440:473|) 0))
               (or (not (<= (+ (- |K:381:382:406:438:471|) 1) 0))
                     (= (+ |__VERIFIER_assert__cond___8':368:384:408:440:473|
                             -1) 0))
               (or (not (<= (- |K:381:382:406:438:471|) 0))
                     (<= (+ |main__t':147:385:409:441:474|
                              (* -2 |K:381:382:406:438:471|)
                              (- |phi_main__t:403:419:452|) -1) 0))
               (or (not (<= (- |K:381:382:406:438:471|) 0))
                     (<= (+ |main__t':147:385:409:441:474|
                              (* 2 |K:381:382:406:438:471|)
                              (- |phi_main__t:403:419:452|)
                              (- (* |K:381:382:406:438:471| havoc)) -1) 0))
               (or (not (<= (- |K:381:382:406:438:471|) 0))
                     (<= (+ (- |main__t':147:385:409:441:474|)
                              |K:381:382:406:438:471|
                              |phi_main__t:403:419:452| 1) 0))
               (or (and (= |K:381:382:406:438:471| 0)
                          (= (+ (- |main____CPAchecker_TMP_6':369:386:410:442:475|)
                                  main____CPAchecker_TMP_6) 0)
                          (= (+ __VERIFIER_assert__cond___8
                                  (- |__VERIFIER_assert__cond___8':368:384:408:440:473|)) 0)
                          (= (+ __VERIFIER_assert__cond___7
                                  (- |__VERIFIER_assert__cond___7':367:383:407:439:472|)) 0)
                          (= (+ (- |__VERIFIER_assert__cond___4':366:387:411:443:476|)
                                  __VERIFIER_assert__cond___4) 0)
                          (= (+ (- |__VERIFIER_assert__cond___3':365:388:412:444:477|)
                                  __VERIFIER_assert__cond___3) 0)
                          (= (+ (- |main____CPAchecker_TMP_4':364:389:413:445:478|)
                                  main____CPAchecker_TMP_4) 0)
                          (= (+ (- |main____CPAchecker_TMP_3':363:390:414:446:479|)
                                  main____CPAchecker_TMP_3) 0)
                          (= (+ (- |main__t':147:385:409:441:474|)
                                  |phi_main__t:403:419:452| 1) 0))
                     (and (<= (+ (- |K:381:382:406:438:471|) 1) 0)
                            (<= (+ |phi_main__t:403:419:452| (- havoc) 3) 0)
                            (<= (- |phi_main__t:403:419:452|) 0)
                            (= (+ |__VERIFIER_assert__cond___8':368:384:408:440:473|
                                    -1) 0)
                            (= (+ |__VERIFIER_assert__cond___7':367:383:407:439:472|
                                    -1) 0)
                            (<= (+ |main__t':147:385:409:441:474| (- havoc) 1) 0)
                            (<= (+ (- |main__t':147:385:409:441:474|) 2) 0)))
               (<= (- |K:381:382:406:438:471|) 0)
               (< (- |main__t':147:385:409:441:474|) 0) (< (+ (- havoc) 1) 0)
               (not (= (+ |main__t':147:385:409:441:474| (- havoc) 1) 0))
               (= |havoc:28:64:341:391:415:447:480| 0)
               (not (= |havoc:29:65:392:416:448:481| 0))
               (not (= (ite (<= (- |main__t':147:385:409:441:474|) 0) 1 0) 0))
               (= (ite (<= (+ |main__t':147:385:409:441:474| (- havoc) 1) 0)
                       1 0) 0)))
(check-sat)
